SCIP version 8.0.0 [precision: 8 byte] [memory: block] [mode: optimized] [LP solver: SoPlex 6.0.0] [GitHash: a740f0891e]
Copyright (C) 2002-2021 Konrad-Zuse-Zentrum fuer Informationstechnik Berlin (ZIB)

read problem </home/danilo/cbc-test-set/modglob.mps.gz> ...

original problem has 422 variables (98 bin, 0 int, 0 impl, 324 cont) and 291 constraints
solve problem ...

presolving:
   Deactivated symmetry handling methods, since SCIP was built without symmetry detector (SYM=none).
presolving (0 rounds: 0 fast, 0 medium, 0 exhaustive):
 0 deleted vars, 0 deleted constraints, 0 added constraints, 0 tightened bounds, 0 added holes, 0 changed sides, 0 changed coefficients
 0 implications, 0 cliques
presolved problem has 422 variables (98 bin, 0 int, 0 impl, 324 cont) and 291 constraints
    291 constraints of type <linear>
Presolving Time: 0.00

 time | node  | left  |LP iter|LP it/n|mem/heur|mdpt |vars |cons |rows |cuts |sepa|confs|strbr|  dualbound   | primalbound  |  gap   | compl. 
  0.0s|     1 |     0 |   210 |     - |  2605k |   0 | 422 | 289 | 289 |   0 |  0 |   0 |   0 | 2.043095e+07 |      --      |    Inf | unknown
* 0.0s|     1 |     0 |   210 |     - |strongbr|   0 | 422 | 289 | 289 |   0 |  1 |   0 |   0 | 2.043095e+07 | 2.091646e+07 |   2.38%| unknown
* 0.0s|     1 |     0 |   210 |     - |strongbr|   0 | 422 | 289 | 289 |   0 |  1 |   0 |   0 | 2.043095e+07 | 2.079702e+07 |   1.79%| unknown
* 0.0s|     1 |     0 |   210 |     - |strongbr|   0 | 422 | 289 | 289 |   0 |  1 |   0 |   1 | 2.043095e+07 | 2.078679e+07 |   1.74%| unknown
* 0.0s|     1 |     0 |   210 |     - |strongbr|   0 | 422 | 289 | 289 |   0 |  1 |   0 |   5 | 2.043095e+07 | 2.078664e+07 |   1.74%| unknown
* 0.0s|     1 |     0 |   210 |     - |strongbr|   0 | 422 | 289 | 289 |   0 |  1 |   0 |   9 | 2.043095e+07 | 2.078571e+07 |   1.74%| unknown
* 0.0s|     1 |     0 |   210 |     - |strongbr|   0 | 422 | 289 | 289 |   0 |  1 |   0 |  11 | 2.043095e+07 | 2.077959e+07 |   1.71%| unknown
* 0.0s|     1 |     0 |   210 |     - |strongbr|   0 | 422 | 289 | 289 |   0 |  1 |   0 |  13 | 2.043095e+07 | 2.075720e+07 |   1.60%| unknown
  0.0s|     1 |     2 |   210 |     - |  3005k |   0 | 422 | 289 | 289 |   0 |  1 |   0 |  30 | 2.045332e+07 | 2.075720e+07 |   1.49%| unknown

SCIP Status        : solving was interrupted [node limit reached]
Solving Time (sec) : 0.02
Solving Nodes      : 1
Primal Bound       : +2.07572011599611e+07 (35 solutions)
Dual Bound         : +2.04533221484270e+07
Gap                : 1.49 %
primal solution:
objective value:                     20757201.1599611
D02DHT                                              1 	(obj:3054.878418)
D03DHT                                              1 	(obj:13947.26953)
D04DHT                                              1 	(obj:5305.347656)
D05DHT                                              1 	(obj:25340.46484)
D07DHT                                              1 	(obj:7474.433594)
D09DHT                                              1 	(obj:9055.078125)
D10DHT                                              1 	(obj:7918.894531)
D11DHT                                              1 	(obj:6826.523438)
D12DHT                                              1 	(obj:15850.30859)
D16DHT                                              1 	(obj:9947.128906)
D17DHT                                              1 	(obj:10720.24219)
D18DHT                                              1 	(obj:9662.304688)
D19DHT                                              1 	(obj:16113.22656)
D23DHT                                              1 	(obj:5712.246094)
D25DHT                                              1 	(obj:18970.91797)
D26DHT                                              1 	(obj:11443.26953)
D27DHT                                              1 	(obj:19978.77344)
D28DHT                                              1 	(obj:11728.10156)
D29DHT                                              1 	(obj:17578.06641)
D30DHT                                              1 	(obj:12034.84375)
D31DHT                                              1 	(obj:13584.19141)
D32DHT                                              1 	(obj:9621.609375)
D33DHT                                              1 	(obj:9170.894531)
D34DHT                                              1 	(obj:20545.30859)
D36DHT                                              1 	(obj:21283.98828)
D38DHT                                              1 	(obj:20263.60547)
D40DHT                                              1 	(obj:16695.41016)
D42DHT                                              1 	(obj:10178.75391)
D43DHT                                              1 	(obj:8397.777344)
D44DHT                                              1 	(obj:8069.128906)
TDHT1510                             11372.6869850767 	(obj:3.449157)
TDHT1516                             8880.92037598786 	(obj:2.449518)
TDHT1525                             621.330023598501 	(obj:4.060867)
PRDHT15                              23929.0381980143 	(obj:432)
TDHT0201                             1.83306734693878 	(obj:0.65392)
TDHT0403                             636.074369387755 	(obj:1.599959)
TDHT0502                             86.1915748438151 	(obj:2.985518)
TDHT0504                             1254.33407862753 	(obj:1.135649)
TDHT0706                             1464.62081020408 	(obj:1.938308)
TDHT0805                             2289.42719900118 	(obj:5.424316)
TDHT0807                              4169.3226651748 	(obj:1.6951)
TDHT0908                             7316.94457324079 	(obj:1.461269)
TDHT1009                             7529.08308044979 	(obj:3.392878)
TDHT1011                             3525.61130252534 	(obj:2.129257)
TDHT1112                             2780.72843892502 	(obj:2.294749)
TDHT1213                             889.067352596705 	(obj:2.068289)
TDHT1314                             205.059133877551 	(obj:1.222749)
TDHT1617                             6351.31945520361 	(obj:2.510489)
TDHT1624                             1183.36076359727 	(obj:4.276607)
TDHT1718                             2530.71578283773 	(obj:2.576149)
TDHT1723                             1726.03367166181 	(obj:3.762717)
TDHT1819                             1176.72736166115 	(obj:2.059578)
TDHT1822                             887.685931970013 	(obj:2.9078)
TDHT1921                             838.462716760703 	(obj:1.9631)
TDHT2031                              126.35944244898 	(obj:1.727258)
TDHT2120                             204.704990254061 	(obj:1.797607)
TDHT2130                             142.857048571429 	(obj:2.178839)
TDHT2229                             41.5495265306122 	(obj:3.573778)
TDHT2328                             569.717331428571 	(obj:4.337578)
TDHT2427                              212.26919877551 	(obj:4.556)
TDHT2526                             481.119076326531 	(obj:4.397878)
CDHT01                                            1.5 	(obj:935.779785)
CDHT02                                             69 	(obj:590.19458)
CDHT03                                          520.5 	(obj:586.431152)
CDHT04                                     495.299805 	(obj:586.384521)
CDHT05                                     754.099854 	(obj:585.222412)
CDHT06                                         1198.5 	(obj:584.8667)
CDHT07                                    2188.799805 	(obj:584.592285)
CDHT08                                          594.4 	(obj:586.196533)
CDHT09                                           51.4 	(obj:607.073486)
CDHT10                                           75.6 	(obj:593.749756)
CDHT11                                     563.099854 	(obj:585.37793)
CDHT12                                    1533.099854 	(obj:584.541016)
CDHT13                                     556.299805 	(obj:585.455078)
CDHT14                                          167.8 	(obj:587.869385)
CDHT16                                     975.799805 	(obj:584.969482)
CDHT17                                         1642.9 	(obj:584.601318)
CDHT18                                     347.099854 	(obj:585.421143)
CDHT19                                     262.799805 	(obj:586.946777)
CDHT20                                             62 	(obj:592.529541)
CDHT21                                          395.9 	(obj:585.983643)
CDHT22                                          691.7 	(obj:585.921387)
CDHT23                                          936.7 	(obj:586.138184)
CDHT24                                     791.099854 	(obj:585.365967)
CDHT25                                          106.7 	(obj:593.9563)
CDHT26                                          393.7 	(obj:586.775391)
CDHT27                                          173.7 	(obj:590.526367)
CDHT28                                          466.2 	(obj:588.990479)
CDHT29                                             34 	(obj:628.276367)
CDHT30                                          116.9 	(obj:589.911133)
CDHT31                                          103.4 	(obj:590.110107)
CDHT15                                     552.099854 	(obj:585.704346)
Statistics:
SCIP Status        : solving was interrupted [node limit reached]
Total Time         :       0.02
  solving          :       0.02
  presolving       :       0.00 (included in solving)
  reading          :       0.00
  copying          :       0.00 (0 times copied the problem)
Original Problem   :
  Problem name     : MODGLOB
  Variables        : 422 (98 binary, 0 integer, 0 implicit integer, 324 continuous)
  Constraints      : 291 initial, 291 maximal
  Objective        : minimize, 422 non-zeros (abs.min = 0.35136, abs.max = 40996)
Presolved Problem  :
  Problem name     : t_MODGLOB
  Variables        : 422 (98 binary, 0 integer, 0 implicit integer, 324 continuous)
  Constraints      : 291 initial, 291 maximal
  Objective        : minimize, 422 non-zeros (abs.min = 0.35136, abs.max = 40996)
  Nonzeros         : 968 constraint, 0 clique table
Presolvers         :   ExecTime  SetupTime  Calls  FixedVars   AggrVars   ChgTypes  ChgBounds   AddHoles    DelCons    AddCons   ChgSides   ChgCoefs
  boundshift       :       0.00       0.00      0          0          0          0          0          0          0          0          0          0
  convertinttobin  :       0.00       0.00      0          0          0          0          0          0          0          0          0          0
  domcol           :       0.00       0.00      0          0          0          0          0          0          0          0          0          0
  dualagg          :       0.00       0.00      0          0          0          0          0          0          0          0          0          0
  dualcomp         :       0.00       0.00      0          0          0          0          0          0          0          0          0          0
  dualinfer        :       0.00       0.00      0          0          0          0          0          0          0          0          0          0
  dualsparsify     :       0.00       0.00      0          0          0          0          0          0          0          0          0          0
  gateextraction   :       0.00       0.00      0          0          0          0          0          0          0          0          0          0
  implics          :       0.00       0.00      0          0          0          0          0          0          0          0          0          0
  inttobinary      :       0.00       0.00      0          0          0          0          0          0          0          0          0          0
  qpkktref         :       0.00       0.00      0          0          0          0          0          0          0          0          0          0
  redvub           :       0.00       0.00      0          0          0          0          0          0          0          0          0          0
  sparsify         :       0.00       0.00      0          0          0          0          0          0          0          0          0          0
  stuffing         :       0.00       0.00      0          0          0          0          0          0          0          0          0          0
  trivial          :       0.00       0.00      0          0          0          0          0          0          0          0          0          0
  tworowbnd        :       0.00       0.00      0          0          0          0          0          0          0          0          0          0
  dualfix          :       0.00       0.00      0          0          0          0          0          0          0          0          0          0
  genvbounds       :       0.00       0.00      0          0          0          0          0          0          0          0          0          0
  probing          :       0.00       0.00      0          0          0          0          0          0          0          0          0          0
  pseudoobj        :       0.00       0.00      0          0          0          0          0          0          0          0          0          0
  symmetry         :       0.00       0.00      0          0          0          0          0          0          0          0          0          0
  vbounds          :       0.00       0.00      0          0          0          0          0          0          0          0          0          0
  linear           :       0.00       0.00      0          0          0          0          0          0          0          0          0          0
  benders          :       0.00       0.00      0          0          0          0          0          0          0          0          0          0
  components       :       0.00       0.00      0          0          0          0          0          0          0          0          0          0
  root node        :          -          -      -          0          -          -        324          -          -          -          -          -
Constraints        :     Number  MaxNumber  #Separate #Propagate    #EnfoLP    #EnfoRelax  #EnfoPS    #Check   #ResProp    Cutoffs    DomReds       Cuts    Applied      Conss   Children
  benderslp        :          0          0          0          0          1          0          0         37          0          0          0          0          0          0          0
  integral         :          0          0          0          0          1          0          0         37          0          0          0          0          0          0          2
  linear           :        291        291          1         96          0          0          0         35          0          0        324          0          0          0          0
  benders          :          0          0          0          0          0          0          0         36          0          0          0          0          0          0          0
  countsols        :          0          0          0          0          0          0          0         36          0          0          0          0          0          0          0
  components       :          0          0          0          0          0          0          0          0          0          0          0          0          0          0          0
Constraint Timings :  TotalTime  SetupTime   Separate  Propagate     EnfoLP     EnfoPS     EnfoRelax   Check    ResProp    SB-Prop
  benderslp        :       0.00       0.00       0.00       0.00       0.00       0.00       0.00       0.00       0.00       0.00
  integral         :       0.02       0.00       0.00       0.00       0.02       0.00       0.00       0.00       0.00       0.00
  linear           :       0.00       0.00       0.00       0.00       0.00       0.00       0.00       0.00       0.00       0.00
  benders          :       0.00       0.00       0.00       0.00       0.00       0.00       0.00       0.00       0.00       0.00
  countsols        :       0.00       0.00       0.00       0.00       0.00       0.00       0.00       0.00       0.00       0.00
  components       :       0.00       0.00       0.00       0.00       0.00       0.00       0.00       0.00       0.00       0.00
Propagators        : #Propagate   #ResProp    Cutoffs    DomReds
  dualfix          :          3          0          0          0
  genvbounds       :          0          0          0          0
  nlobbt           :          0          0          0          0
  obbt             :          0          0          0          0
  probing          :          0          0          0          0
  pseudoobj        :          0          0          0          0
  redcost          :          0          0          0          0
  rootredcost      :          0          0          0          0
  symmetry         :          0          0          0          0
  vbounds          :          0          0          0          0
Propagator Timings :  TotalTime  SetupTime   Presolve  Propagate    ResProp    SB-Prop
  dualfix          :       0.00       0.00       0.00       0.00       0.00       0.00
  genvbounds       :       0.00       0.00       0.00       0.00       0.00       0.00
  nlobbt           :       0.00       0.00       0.00       0.00       0.00       0.00
  obbt             :       0.00       0.00       0.00       0.00       0.00       0.00
  probing          :       0.00       0.00       0.00       0.00       0.00       0.00
  pseudoobj        :       0.00       0.00       0.00       0.00       0.00       0.00
  redcost          :       0.00       0.00       0.00       0.00       0.00       0.00
  rootredcost      :       0.00       0.00       0.00       0.00       0.00       0.00
  symmetry         :       0.00       0.00       0.00       0.00       0.00       0.00
  vbounds          :       0.00       0.00       0.00       0.00       0.00       0.00
Conflict Analysis  :       Time      Calls    Success    DomReds  Conflicts   Literals    Reconvs ReconvLits   Dualrays   Nonzeros   LP Iters   (pool size: [--,--])
  propagation      :       0.00          0          0          -          0        0.0          0        0.0          -          -          -
  infeasible LP    :       0.00          0          0          -          0        0.0          0        0.0          0        0.0          0
  bound exceed. LP :       0.00          0          0          -          0        0.0          0        0.0          0        0.0          0
  strong branching :       0.00          0          0          -          0        0.0          0        0.0          -          -          0
  pseudo solution  :       0.00          0          0          -          0        0.0          0        0.0          -          -          -
  applied globally :       0.00          -          -          0          0        0.0          -          -          0          -          -
  applied locally  :          -          -          -          0          0        0.0          -          -          0          -          -
Separators         :   ExecTime  SetupTime      Calls    Cutoffs    DomReds       Cuts    Applied      Conss
  cut pool         :       0.00                     0          -          -          0          -          -    (maximal pool size: 0)
  aggregation      :       0.00       0.00          0          0          0          0          0          0
  > cmir           :          -          -          -          -          -          -          0          -
  > flowcover      :          -          -          -          -          -          -          0          -
  > knapsackcover  :          -          -          -          -          -          -          0          -
  cgmip            :       0.00       0.00          0          0          0          0          0          0
  clique           :       0.00       0.00          0          0          0          0          0          0
  closecuts        :       0.00       0.00          0          0          0          0          0          0
  convexproj       :       0.00       0.00          0          0          0          0          0          0
  disjunctive      :       0.00       0.00          0          0          0          0          0          0
  eccuts           :       0.00       0.00          0          0          0          0          0          0
  gauge            :       0.00       0.00          0          0          0          0          0          0
  gmi              :       0.00       0.00          0          0          0          0          0          0
  gomory           :       0.00       0.00          0          0          0          0          0          0
  > gomorymi       :          -          -          -          -          -          -          0          -
  > strongcg       :          -          -          -          -          -          -          0          -
  impliedbounds    :       0.00       0.00          0          0          0          0          0          0
  interminor       :       0.00       0.00          0          0          0          0          0          0
  intobj           :       0.00       0.00          0          0          0          0          0          0
  mcf              :       0.00       0.00          0          0          0          0          0          0
  minor            :       0.00       0.00          0          0          0          0          0          0
  mixing           :       0.00       0.00          0          0          0          0          0          0
  oddcycle         :       0.00       0.00          0          0          0          0          0          0
  rapidlearning    :       0.00       0.00          0          0          0          0          0          0
  rlt              :       0.00       0.00          0          0          0          0          0          0
  zerohalf         :       0.00       0.00          0          0          0          0          0          0
Cutselectors       :   ExecTime  SetupTime
  hybrid           :       0.00       0.00
Pricers            :   ExecTime  SetupTime      Calls       Vars
  problem variables:       0.00          -          0          0
Branching Rules    :   ExecTime  SetupTime   BranchLP  BranchExt   BranchPS    Cutoffs    DomReds       Cuts      Conss   Children
  allfullstrong    :       0.00       0.00          0          0          0          0          0          0          0          0
  cloud            :       0.00       0.00          0          0          0          0          0          0          0          0
  distribution     :       0.00       0.00          0          0          0          0          0          0          0          0
  fullstrong       :       0.00       0.00          0          0          0          0          0          0          0          0
  inference        :       0.00       0.00          0          0          0          0          0          0          0          0
  leastinf         :       0.00       0.00          0          0          0          0          0          0          0          0
  lookahead        :       0.00       0.00          0          0          0          0          0          0          0          0
  mostinf          :       0.00       0.00          0          0          0          0          0          0          0          0
  multaggr         :       0.00       0.00          0          0          0          0          0          0          0          0
  nodereopt        :       0.00       0.00          0          0          0          0          0          0          0          0
  pscost           :       0.00       0.00          0          0          0          0          0          0          0          0
  random           :       0.00       0.00          0          0          0          0          0          0          0          0
  relpscost        :       0.02       0.00          1          0          0          0          0          0          0          2
  vanillafullstrong:       0.00       0.00          0          0          0          0          0          0          0          0
Primal Heuristics  :   ExecTime  SetupTime      Calls      Found       Best
  LP solutions     :       0.00          -          -          0          0
  relax solutions  :       0.00          -          -          0          0
  pseudo solutions :       0.00          -          -          0          0
  strong branching :       0.00          -          -         35          7
  actconsdiving    :       0.00       0.00          0          0          0
  adaptivediving   :       0.00       0.00          0          0          0
  alns             :       0.00       0.00          0          0          0
  bound            :       0.00       0.00          0          0          0
  clique           :       0.00       0.00          0          0          0
  coefdiving       :       0.00       0.00          0          0          0
  completesol      :       0.00       0.00          0          0          0
  conflictdiving   :       0.00       0.00          0          0          0
  crossover        :       0.00       0.00          0          0          0
  dins             :       0.00       0.00          0          0          0
  distributiondivin:       0.00       0.00          0          0          0
  dps              :       0.00       0.00          0          0          0
  dualval          :       0.00       0.00          0          0          0
  farkasdiving     :       0.00       0.00          0          0          0
  feaspump         :       0.00       0.00          0          0          0
  fixandinfer      :       0.00       0.00          0          0          0
  fracdiving       :       0.00       0.00          0          0          0
  gins             :       0.00       0.00          0          0          0
  guideddiving     :       0.00       0.00          0          0          0
  indicator        :       0.00       0.00          0          0          0
  intdiving        :       0.00       0.00          0          0          0
  intshifting      :       0.00       0.00          0          0          0
  linesearchdiving :       0.00       0.00          0          0          0
  localbranching   :       0.00       0.00          0          0          0
  locks            :       0.00       0.00          0          0          0
  lpface           :       0.00       0.00          0          0          0
  mpec             :       0.00       0.00          0          0          0
  multistart       :       0.00       0.00          0          0          0
  mutation         :       0.00       0.00          0          0          0
  nlpdiving        :       0.00       0.00          0          0          0
  objpscostdiving  :       0.00       0.00          0          0          0
  octane           :       0.00       0.00          0          0          0
  ofins            :       0.00       0.00          0          0          0
  oneopt           :       0.00       0.00          0          0          0
  padm             :       0.00       0.00          0          0          0
  proximity        :       0.00       0.00          0          0          0
  pscostdiving     :       0.00       0.00          0          0          0
  randrounding     :       0.00       0.00          0          0          0
  rens             :       0.00       0.00          0          0          0
  reoptsols        :       0.00       0.00          0          0          0
  repair           :       0.00       0.00          0          0          0
  rins             :       0.00       0.00          0          0          0
  rootsoldiving    :       0.00       0.00          0          0          0
  rounding         :       0.00       0.00          0          0          0
  shiftandpropagate:       0.00       0.00          0          0          0
  shifting         :       0.00       0.00          0          0          0
  simplerounding   :       0.00       0.00          0          0          0
  subnlp           :       0.00       0.00          0          0          0
  trivial          :       0.00       0.00          0          0          0
  trivialnegation  :       0.00       0.00          0          0          0
  trustregion      :       0.00       0.00          0          0          0
  trysol           :       0.00       0.00          0          0          0
  twoopt           :       0.00       0.00          0          0          0
  undercover       :       0.00       0.00          0          0          0
  vbounds          :       0.00       0.00          0          0          0
  veclendiving     :       0.00       0.00          0          0          0
  zeroobj          :       0.00       0.00          0          0          0
  zirounding       :       0.00       0.00          0          0          0
  other solutions  :          -          -          -          0          -
Diving (single)    :      Calls      Nodes   LP Iters Backtracks  Conflicts   MinDepth   MaxDepth   AvgDepth  RoundSols  NLeafSols  MinSolDpt  MaxSolDpt  AvgSolDpt
  actconsdiving    :          0          -          -          -          -          -          -          -          -          -          -          -          -
  coefdiving       :          0          -          -          -          -          -          -          -          -          -          -          -          -
  conflictdiving   :          0          -          -          -          -          -          -          -          -          -          -          -          -
  distributiondivin:          0          -          -          -          -          -          -          -          -          -          -          -          -
  farkasdiving     :          0          -          -          -          -          -          -          -          -          -          -          -          -
  fracdiving       :          0          -          -          -          -          -          -          -          -          -          -          -          -
  guideddiving     :          0          -          -          -          -          -          -          -          -          -          -          -          -
  linesearchdiving :          0          -          -          -          -          -          -          -          -          -          -          -          -
  pscostdiving     :          0          -          -          -          -          -          -          -          -          -          -          -          -
  veclendiving     :          0          -          -          -          -          -          -          -          -          -          -          -          -
Diving (adaptive)  :      Calls      Nodes   LP Iters Backtracks  Conflicts   MinDepth   MaxDepth   AvgDepth  RoundSols  NLeafSols  MinSolDpt  MaxSolDpt  AvgSolDpt
  actconsdiving    :          0          -          -          -          -          -          -          -          -          -          -          -          -
  coefdiving       :          0          -          -          -          -          -          -          -          -          -          -          -          -
  conflictdiving   :          0          -          -          -          -          -          -          -          -          -          -          -          -
  distributiondivin:          0          -          -          -          -          -          -          -          -          -          -          -          -
  farkasdiving     :          0          -          -          -          -          -          -          -          -          -          -          -          -
  fracdiving       :          0          -          -          -          -          -          -          -          -          -          -          -          -
  guideddiving     :          0          -          -          -          -          -          -          -          -          -          -          -          -
  linesearchdiving :          0          -          -          -          -          -          -          -          -          -          -          -          -
  pscostdiving     :          0          -          -          -          -          -          -          -          -          -          -          -          -
  veclendiving     :          0          -          -          -          -          -          -          -          -          -          -          -          -
Neighborhoods      :      Calls  SetupTime  SolveTime SolveNodes       Sols       Best       Exp3  EpsGreedy        UCB TgtFixRate  Opt  Inf Node Stal  Sol  Usr Othr Actv
  rens             :          0       0.00       0.00          0          0          0    0.00000   -1.00000    1.00000      0.900    0    0    0    0    0    0    0    1
  rins             :          0       0.00       0.00          0          0          0    0.00000   -1.00000    1.00000      0.900    0    0    0    0    0    0    0    1
  mutation         :          0       0.00       0.00          0          0          0    0.00000   -1.00000    1.00000      0.900    0    0    0    0    0    0    0    1
  localbranching   :          0       0.00       0.00          0          0          0    0.00000   -1.00000    1.00000      0.900    0    0    0    0    0    0    0    1
  crossover        :          0       0.00       0.00          0          0          0    0.00000   -1.00000    1.00000      0.900    0    0    0    0    0    0    0    1
  proximity        :          0       0.00       0.00          0          0          0    0.00000   -1.00000    1.00000      0.900    0    0    0    0    0    0    0    1
  zeroobjective    :          0       0.00       0.00          0          0          0    0.00000   -1.00000    1.00000      0.900    0    0    0    0    0    0    0    1
  dins             :          0       0.00       0.00          0          0          0    0.00000   -1.00000    1.00000      0.900    0    0    0    0    0    0    0    1
  trustregion      :          0       0.00       0.00          0          0          0    0.00000   -1.00000    1.00000      0.900    0    0    0    0    0    0    0    0
LP                 :       Time      Calls Iterations  Iter/call   Iter/sec  Time-0-It Calls-0-It    ItLimit
  primal LP        :       0.00          0          0       0.00          -       0.00          0
  dual LP          :       0.00          1        210     210.00          -       0.00          0
  lex dual LP      :       0.00          0          0       0.00          -
  barrier LP       :       0.00          0          0       0.00          -       0.00          0
  resolve instable :       0.00          0          0       0.00          -
  diving/probing LP:       0.00          0          0       0.00          -
  strong branching :       0.01         30        217       7.23   21328.88          -          -          0
    (at root node) :          -         30        217       7.23          -
  conflict analysis:       0.00          0          0       0.00          -
B&B Tree           :
  number of runs   :          1
  nodes            :          1 (1 internal, 0 leaves)
  feasible leaves  :          0
  infeas. leaves   :          0
  objective leaves :          0
  nodes (total)    :          1 (1 internal, 0 leaves)
  nodes left       :          2
  max depth        :          0
  max depth (total):          0
  backtracks       :          0 (0.0%)
  early backtracks :          0 (0.0%)
  nodes exc. ref.  :          0 (0.0%)
  delayed cutoffs  :          0
  repropagations   :          0 (0 domain reductions, 0 cutoffs)
  avg switch length:       1.00
  switching time   :       0.00
Estim. Tree Size   :         -1
Estimation Tree    : 3 nodes (1 visited, 1 internal, 0 leaves, 2 open), weight: 0.0000 completed 0.0000
Estimations        :      estim      value      trend resolution     smooth
  wbe              :         -1          -          -          -          -
  tree-profile     :         -1          -          -          -          -
  gap              :         -1    0.98536                     1           
  tree-weight      :         -1    0.00000                     1           
  leaf-frequency   :         -1   -0.50000                     1           
  ssg              :         -1    1.00000                     1           
  open-nodes       :         -1    2.00000                     1           
Root Node          :
  First LP value   : +2.04309476188537e+07
  First LP Iters   :        210 (98963.24 Iter/sec)
  First LP Time    :       0.00
  Final Dual Bound : +2.04533221484270e+07
  Final Root Iters :        210
  Root LP Estimate : +2.05191512627695e+07
Solution           :
  Solutions found  :         35 (7 improvements)
  First Solution   : +2.09164633308707e+07   (in run 1, after 1 nodes, 0.00 seconds, depth 2, found by <relaxation>)
  Gap First Sol.   :       2.38 %
  Gap Last Sol.    :       1.60 %
  Primal Bound     : +2.07572011599611e+07   (in run 1, after 1 nodes, 0.01 seconds, depth 2, found by <relaxation>)
  Dual Bound       : +2.04533221484270e+07
  Gap              :       1.49 %
Integrals          :      Total       Avg%
  primal-dual      :       0.50      24.74
  primal-ref       :          -          - (not evaluated)
  dual-ref         :          -          - (not evaluated)
